language ESSENCE' 1.0
letting initGrid be [
[1, 1, 4, 1, 3, 2], 
[4, 1, 3, 1, 3, 1], 
[3, 1, 1, 3, 2, 3], 
[1, 3, 1, 4, 3, 4], 
[3, 4, 1, 4, 3, 3]
]
letting goalBlocksRemaining be 4
letting noSteps be 9
